(declare-const x0 Bool)
(declare-const x1 Bool)
(declare-const x2 Bool)
(declare-const x3 Bool)
(declare-const x4 Bool)
(declare-const x5 Bool)
(declare-const x6 Bool)
(declare-const x7 Bool)
(declare-const x8 Bool)
(declare-const x9 Bool)
(declare-const x10 Bool)
(declare-const x11 Bool)
(declare-const x12 Bool)
(declare-const x13 Bool)
(declare-const x14 Bool)
(declare-const x15 Bool)
(declare-const x16 Bool)
(declare-const x17 Bool)
(declare-const x18 Bool)
(declare-const x19 Bool)
(declare-const x20 Bool)
(declare-const x21 Bool)
(declare-const x22 Bool)
(declare-const x23 Bool)
(declare-const x24 Bool)
(declare-const x25 Bool)
(assert (and x24 true))
(assert (or (or (and x9 x7) (and false false)) true))
(assert (= (= (and x10 false) true) (and x2 (or x12 x21))))
(assert (or (and x12 (and true false)) (or x6 (and true false))))
(assert (or (or (= (= x7 x4) (and x22 false)) (and false (= x25 false))) (or x12 x24)))
(assert (or (= (and true (or x17 x18)) true) (or x4 (and x18 x21))))
(assert (= (or (or x9 x1) x3) (or false x24)))
(assert (or (and (and x20 false) true) (or false (or false x24))))
(assert x11)
(assert x19)
(check-sat)
